ACTORES = {Actor0, Actor1, Actor2, Actor3, Actor4, Actor5, Actor6, Actor7, Actor8, Actor9};
Escenas =[|0,1,1,0,0,4
		  |1,1,1,1,0,18
		  |0,0,1,0,1,5
		  |1,0,0,0,1,17
		  |1,0,1,1,0,11
		  |0,1,1,1,1,12
		  |0,0,0,0,1,18
		  |0,1,0,0,0,14
		  |1,1,1,0,1,14
		  |0,1,1,0,1,17
		  |];
Duracion=[3, 4, 5, 2, 2];